sat
(:added-eqs                       110827
 :arith-eq-adapter                1593
 :arith-bound-propagations-lp     87570
 :arith-branch                    359
 :arith-conflicts                 13326
 :arith-cube-calls                147
 :arith-diseq                     83385
 :arith-fixed-eqs                 34291
 :arith-gcd-calls                 2297
 :arith-gomory-cuts               320
 :arith-grobner-calls             2221
 :arith-grobner-conflicts         594
 :arith-hnf-calls                 5
 :arith-horner-calls              825
 :arith-horner-conflicts          16
 :arith-horner-cross-nested-forms 61910
 :arith-lower                     99727
 :arith-make-feasible             69298
 :arith-max-columns               1091
 :arith-max-rows                  660
 :arith-nla-add-bounds            466
 :arith-nla-lemmas                9065
 :arith-nla-propagate-bounds      1949
 :arith-nla-propagate-eq          45013
 :arith-nra-calls                 172
 :arith-offset-eqs                22624
 :arith-patches                   2297
 :arith-patches-success           1738
 :arith-upper                     109531
 :binary-propagations             474349
 :conflicts                       3046
 :decisions                       506987
 :del-clause                      11761
 :final-checks                    5492
 :max-memory                      83.57
 :memory                          18.55
 :minimized-lits                  23155
 :mk-bool-var                     23548
 :mk-clause                       15120
 :mk-clause-binary                8461
 :nlsat-conflicts                 17525
 :nlsat-decisions                 219
 :nlsat-propagations              754974
 :nlsat-stages                    390703
 :num-allocs                      22654033594.00
 :num-checks                      1
 :propagations                    610049
 :restarts                        25
 :rlimit-count                    17146691
 :sls-arith-propagations          18
 :sls-arith-steps                 5144
 :sls-ddfw-flips                  18227.00
 :sls-ddfw-reinits                1
 :sls-ddfw-shifts                 2239.00
 :sls-num-guided-search           14
 :sls-num-restart-search          1
 :solve-eqs-elim-vars             170
 :solve-eqs-steps                 1052
 :time                            8.99
 :total-time                      8.99)
